problems/csplib-prob030/BalancedAcademicCurriculumProblem-models/compact/O0/minion/model-bacp-26-solution000001.solution
language Essence 1.3

letting curr be
        function(1 --> 5, 2 --> 5, 3 --> 1, 4 --> 5, 5 --> 1, 6 --> 5, 7 --> 1, 8 --> 4, 9 --> 4, 10 --> 1, 11 --> 3,
                 12 --> 3, 13 --> 3, 14 --> 3, 15 --> 3, 16 --> 1, 17 --> 2, 18 --> 2, 19 --> 2, 20 --> 2, 21 --> 2,
                 22 --> 1, 23 --> 1, 24 --> 7, 25 --> 8, 26 --> 8, 27 --> 4, 28 --> 6, 29 --> 6, 30 --> 9, 31 --> 7,
                 32 --> 3, 33 --> 3, 34 --> 3, 35 --> 3, 36 --> 3, 37 --> 4, 38 --> 10, 39 --> 10, 40 --> 5, 41 --> 2,
                 42 --> 2, 43 --> 4, 44 --> 9, 45 --> 2, 46 --> 2, 47 --> 1, 48 --> 2, 49 --> 1, 50 --> 1)
