problems/csplib-prob030/BalancedAcademicCurriculumProblem-models/noch/O2/minion/model-bacp-26-solution000001.eprime-solution
language ESSENCE' 1.0

letting curr_Function1D be
        [5, 5, 1, 5, 1, 5, 1, 4, 4, 1, 3, 3, 3, 3, 3, 1, 2, 2, 2, 2, 2, 1, 1, 7, 8, 8, 4, 6, 6, 9, 7, 3, 3, 3, 3, 3, 4,
         10, 10, 5, 2, 2, 4, 9, 2, 2, 1, 2, 1, 1;
             int(1..50)]
